SYSTEM = Al

#Initialize
ISTART = 0
ICHARG = 2
ISYM = 0
PREC = Accurate
ALGO = Normal # or fast

#Electronic degrees
ENCUT = 500
NELM    =  100 
NELMIN  =  6
EDIFF = 1e-6  

#iron:1 0.2 non-iron:0 0.05###################
ISMEAR = 1 ; SIGMA = 0.2

#Ionic parameters
IBRION = -1  # 2
NSW = 0

#K points and pressure
#KSPACING = 0.3

#File to write
LCHARG=F
LWAVE=F

#Make it faster
NPAR = 8
KGAMMA = False
LREAL=A
