generated by phonopy
   1.0
     4.0435066112408995    0.0000000000000000    0.0000000000000000
     0.0000000000000000    4.0435066112408995    0.0000000000000000
     0.0000000000000000    0.0000000000000000    4.0435066112408995
Al
   4
Direct
  0.0000000000000000  0.0000000000000000  0.0000000000000000
  0.0000000000000000  0.5000000000000000  0.5000000000000000
  0.5000000000000000  0.0000000000000000  0.5000000000000000
  0.5000000000000000  0.5000000000000000  0.0000000000000000
