Na51 
1.0
1.3242326800933000e+01 0.0000000000000000e+00 0.0000000000000000e+00 
-6.6211629618536998e+00 1.1468191668056701e+01 0.0000000000000000e+00 
2.2266252558873600e-07 3.8566279022938079e-07 2.9492545742210998e+00 
Na 
51 
Cartesian
  -0.5695045628    3.9927437053    1.4555716210
   3.5800382463    4.4018848931    2.6827741056
   4.5324005117    6.1503098499    2.4738398115
   2.5325670875    9.7209099608    1.7681331699
   7.1389179969    4.5709615077    1.4498174218
   8.1847463749    6.2438267750    1.7055259991
   2.8750920320    2.7711409051    1.3234359085
   1.5682446706    4.6708144091    1.4862751466
   6.9662701560    8.8907122516    2.4431334474
   3.5397793596    7.9818395300    1.6605106980
   0.6037785051    5.6536822482    1.8833588431
   2.4366013445    7.4994007819    2.2988134794
   4.2738488463   10.9235053709    1.3507746136
   6.1328873909    8.9459906575    2.1556420983
  -0.8518454404    8.7457956581    2.8833689233
   0.1160565666    8.5743420276    1.3733018280
   1.7282917217    5.3143236257    1.1302266393
   2.0653686634    5.2308576193    2.8051505023
   0.0760860271   11.0065668824    1.9402060127
   2.2696479014    7.4345730573    1.1448556116
   8.1422864968    5.2477135437    2.3538863327
   5.8813270261    8.9956074062    1.5877653563
  -0.7787546467    7.0133622667    1.0853302826
   2.2052969677    7.7744272721    2.3268747527
   8.0213770878    3.0309929948    2.4819558255
   8.5591937655    4.3406460575    1.0118317443
  -1.1820809593   10.2481856788    0.9092035025
   1.9981841483    4.7680923565    1.7652639616
   8.8934819171    3.0011902718    1.2194543930
   6.3282381830    9.5780928866    2.2069933991
  -0.2580161819    9.2188171488    2.0190662906
   1.9218940301    4.9521165195    0.5604606985
  -3.2244037196   10.3134389702    2.8087687163
   2.8968582668    3.7778394640    0.9815180714
   4.5547354316    7.4403700820    1.9776357974
   4.5864475733    3.3746317485    0.9118371667
   7.0978026658    7.8848670249    0.7891052973
   5.3738243651    5.9378734474    2.1423791125
  -2.4744570999   10.6141500620    0.8714952096
   8.8002934799    1.8861127070    2.1363221830
   0.9759081111    5.3667801085    1.2518777066
   3.4557282712    6.9681207300    1.5668756448
   9.0788025464    4.0800606351    1.8332251901
   4.5090883116    4.8047402229    2.0435824610
  10.7082906376    2.3683122022    1.4289697767
   5.9911759845    2.9491616690    0.6076413239
   0.8941171031    3.3486521527    0.9700863222
   2.5961928801    9.3052077728    1.1382604377
   3.1235145681    9.7066012035    2.6988269172
   0.0187054406    6.8021319649    1.6999451075
  -1.6605845288    8.5357156411    2.3431976273
