Na51 
1.0
8.2884553130992291e+00 0.0000000000000000e+00 0.0000000000000000e+00 
-4.1442273820191096e+00 7.1780130177762898e+00 0.0000000000000000e+00 
5.6643491233157242e-07 9.8109400401133338e-07 7.5026578979796001e+00 
Na 
51 
Cartesian
  -0.0977910894    6.0203971493    5.1914401909
   3.3089375404    2.6570157217    6.8196808954
   4.9306505359    4.5433902526    5.1845749731
   2.6283479807    6.1174861070    3.2713601018
   5.1225984030    2.9149787722    3.8475194369
   4.2698094419    3.0489287051    5.0906332800
   0.9656334899    4.6068990855    6.7792233997
   1.4694790920    2.8090089303    4.0567412820
   6.7511252587    2.2537701989    5.3319397523
   0.5546620948    5.8090788847    2.7636649056
   0.2137864868    6.0487785565    3.2124498133
   1.9654464037    4.4422795475    6.1759319955
   3.4752205712    2.8340285239    4.0442180870
   3.0134633396    5.4902779834    5.5315300710
   3.4851203934    0.1041115009    5.0215542152
   1.1250716473    4.4729779014    2.2135759629
   0.2854096066    6.7964908497    2.9816326621
  -0.4435617248    6.5165050015    5.3206040653
   2.6370721263    4.8459939774    2.1999626736
   3.2026098898    4.0841156934    3.6057375750
   0.8518060041    4.8358639759    3.4684050328
   1.0227018283    4.8629644176    3.7972915654
   2.5442258447    5.3446672922    4.1710997204
   1.9724291347    5.1387404391    3.6642170659
   3.1825430426    2.2817483162    4.2384111704
   3.8110186015    5.8947371238    2.6242503172
   0.5576508169    5.0365998474    3.9082698175
   2.0604738120    3.2832646237    3.3580035263
   4.2830072587    3.2778540695    2.0440169788
   3.5034357611    6.2809030323    6.4789897101
   1.2141712640    6.0663032311    5.1292608097
   2.8577057825    1.9165342490    2.1134816969
  -1.3021326531    7.1273441646    2.9143839036
   1.6601598297    5.8813105601    5.4349799235
   5.4439930043    3.5101339905    6.0186040515
   1.0869862062    3.3097611464    7.4735282348
   2.5131038030    3.2133432070    3.3612274233
   0.8615131063    5.0992588230    3.4042126837
   0.2147240852    5.1909936368    3.0258899385
   3.7390209315    1.9086136136    3.9570947930
   4.1035105129    3.0198284794    2.9869920777
   1.8063302947    3.3978522207    6.0224121134
   5.8259210788    3.6617399321    3.6277050814
   0.3054148672    5.9288044595    6.0867554564
   7.3025052077    0.8331630356    3.8562363322
   5.6674072990    1.9667196764    1.4682939211
   0.8729508143    2.8446648842    4.6568368073
  -0.1418622292    4.8774464059    5.7611599105
   2.2079961615    6.5437222109    5.1491365845
  -0.5659572880    6.5881662830    4.8783841169
  -0.2698727617    1.2780894638    4.8202674757
