Na50 
1.0
8.2881628597653592e+00 0.0000000000000000e+00 0.0000000000000000e+00 
-2.7627168672483502e+00 7.8141563269117702e+00 0.0000000000000000e+00 
-2.7627168672483502e+00 -3.9070694957314198e+00 6.7672628925541503e+00 
Na 
50 
Cartesian
   4.5716580961    3.4373832148    2.8214294573
   0.7044822648    5.2517947807    2.7807633414
  -0.6386456763    0.4603879220    5.5485898189
  -0.8264251638   -2.8108318311    5.8078746796
  -1.2331190376    0.9782124795    3.8555763671
   2.2297210618   -1.1674227481    4.0319778518
   3.9603583403    3.2068242566    1.1224645966
   3.3219179824    6.9357468113    1.0985093215
  -1.8712607977    4.3933447043    4.3451473132
  -1.0252420392    1.8777522572    4.3190521025
  -0.7506567400    4.7368288075    1.5636891055
   1.0340214749    5.1640379237    1.4644288667
   4.5455993155   -0.1451163549    2.2334267453
   3.3372342729    2.5894439480    2.4845163921
   5.0243094908   -0.4376221636    5.1751251351
   1.9027843549   -1.3531973706    5.3997444650
  -0.9099047899    2.7704761720    5.2726591807
  -2.8249638351    2.0994022189    5.3086618558
  -1.4223170075    5.2842090345    2.2270144953
  -0.0731119803    3.1733445989    2.2085948992
   3.8685278913    0.6881666585    1.5378764177
   5.1953658533    1.8385859558    1.8071203629
   4.1767538184   -0.8868640199    4.4533379388
   2.6216923456    0.9691861897    4.3869353289
   0.3063207508   -0.0811143287    3.3628944799
   3.4612175556    5.0581147147    1.3815410144
   3.0194704792    3.6204827637    3.3573095362
  -1.4747205831   -1.0737123470    6.1207350195
   4.6337653335    0.9294048944    1.7319996177
   3.1898473132   -0.3207989507    4.6698737675
  -2.0548306794    2.8440472595    5.1081062966
  -0.3409273445    4.6404307158    1.9892953691
   4.1488767481    0.0808127513    3.0162169501
   2.9167218299   -0.4363800520    5.4015131364
  -1.3041160229    3.2801336830    4.5015946741
  -0.3717067773    5.3126953590    0.7018452000
   5.1170873584    1.0686484824    1.1365409448
   3.0654055536    0.2288959280    4.0136508234
  -2.5350286715    1.9342830761    6.4005886716
  -0.5810886525    4.0504369494    2.8136288603
  -0.3896741797   -0.7536853414    3.5071828511
   1.3061514498    1.9622467997    3.1245992613
  -0.2035922630    3.7893824351    0.0894086240
   3.7293368254    0.6997792142    0.7193625357
   0.5377218854    0.7814173779    1.3534525987
   2.3891637358    3.4618574333    0.5427581252
  -2.2256945420    1.9469230254    3.8969772631
   2.0472821269   -2.1625162178    3.9447370473
   0.1854536261   -0.6642726018    4.8707467928
   2.9904848228    4.8124713654    2.0170534439
