generated by phonopy
   1.0
     2.6974919917106432    0.0000000000000000    0.0000000000000000
     0.0000000000000000    2.6974919917106432    0.0000000000000000
     0.0000000000000000    0.0000000000000000    2.6974919917106432
Na
   2
Direct
  0.5000000000000000  0.5000000000000000  0.5000000000000000
  0.0000000000000000  0.0000000000000000  0.0000000000000000
