generated by phonopy
   1.0
    -1.3917984866239606    1.3917984866239606    1.3917984866239606
     1.3917984866239606   -1.3917984866239606    1.3917984866239606
     1.3917984866239606    1.3917984866239606   -1.3917984866239606
Na
   1
Direct
  0.0000000000000000  0.0000000000000000  0.0000000000000000
