generated by phonopy
   1.0
     2.7236843018032482    0.0000000000000000    0.0000000000000000
     0.0000000000000000    2.7236843018032482    0.0000000000000000
     0.0000000000000000    0.0000000000000000    2.7236843018032482
Na
   2
Direct
  0.0000000000000000  0.0000000000000000  0.0000000000000000
  0.5000000000000000  0.5000000000000000  0.5000000000000000
