generated by phonopy
   1.0
     2.7523087463752396    0.0000000000000000    0.0000000000000000
     0.0000000000000000    2.7523087463752396    0.0000000000000000
     0.0000000000000000    0.0000000000000000    2.7523087463752396
Na
   2
Direct
  0.0000000000000000  0.0000000000000000  0.0000000000000000
  0.5000000000000000  0.5000000000000000  0.5000000000000000
